s td 36 10 45
b 1 1 4 29
b 2 18 26 38
b 3 11 20
b 4 6 17 31
b 5 5 10 27
b 6 7 16 35
b 7 21 24 45
b 8 19 25 45
b 9 21 23 39
b 10 15 26 40
b 11 22 34 42
b 12 12 28 31 34
b 13 9 14 19 36
b 14 1 5 8 9 19 21 30 31 34 35
b 15 5 8 9 19 21 26 30 31 34 35
b 16 5 8 9 19 21 26 31 33 34 35
b 17 2 5 8 9 21 26 31 33 34
b 18 2 5 8 9 13 26 33
b 19 2 5 13 27 33
b 20 5 9 13 33 41
b 21 2 9 22 26 31 33 34
b 22 9 15 22 26
b 23 2 21 23 34
b 24 5 9 19 21 26 30 31 34 35 38
b 25 5 9 12 19 21 30 31 34 38
b 26 9 12 19 21 30 34 38 45
b 27 9 11 30 34 38 45
b 28 9 11 37 45
b 29 1 7 8 9 19 21 30 31 34 35
b 30 1 7 8 9 19 21 29 31
b 31 7 9 14 19 29 31
b 32 7 14 19 29 43
b 33 7 17 19 31 35
b 34 8 30 31 44
b 35 3
b 36 32
1 30
1 35
1 36
2 24
3 27
4 33
5 19
6 29
7 26
8 26
9 23
10 22
11 21
12 25
13 31
14 15
14 29
14 34
15 16
15 24
16 17
17 18
17 21
17 23
18 19
18 20
21 22
24 25
25 26
26 27
27 28
29 30
29 33
30 31
31 32
